81
103
11
73
45
17
104
88
33
23
5
71
31
79
8
86
87
3
52
90
20
19
27
76
67
26
96
18
16
14
98
63
64
34
58
1
94
44
80
101
56
100
29
109
12
102
0
2
72
42
97
60
50
30
51
38
40
83
10
53
7
99
78
65
82
105
9
70
39
22
35
93
24
57
59
66
62
84
77
74
37
46
75
48
36
49
13
92
110
25
61
55
106
107
108
28
32
21
95
4
